param nR := 18;
param nB := 18;
set E  := 
      1      2  
      2      6  
      6      7  
      7      8  
      3      4  
      4      9  
      4     11  
      9     15  
     15     12  
     13     14  
     13      5  
     11     16  
     10     16  
     16      3  
      8     17  
     14     17  
     17     10  
      3     18  
     12     18  
     18     13  
	;